0011000111111110
0111111111111111
1111111111111111
0111111111111111
0000000000011110
0000000000011110
0000000000011110
0000000000011110
0000000000011110
0000000000011110
0000000000011110
0000000000011110
0011111111111110
0111111111111111
0111111111111110
0011111111110000
